
Gurobi 6.5.2 (linux64) logging started Mon Aug 29 10:57:51 2016

Optimize a model with 41 rows, 115 columns and 241 nonzeros
Coefficient statistics:
  Matrix range    [1e+00, 2e+00]
  Objective range [1e+00, 1e+02]
  Bounds range    [1e+00, 1e+00]
  RHS range       [1e+00, 1e+00]
Found heuristic solution: objective 923
Presolve removed 17 rows and 11 columns
Presolve time: 0.00s
Presolved: 24 rows, 104 columns, 208 nonzeros
Variable types: 0 continuous, 104 integer (104 binary)

Root relaxation: objective 5.025000e+02, 29 iterations, 0.00 seconds

    Nodes    |    Current Node    |     Objective Bounds      |     Work
 Expl Unexpl |  Obj  Depth IntInf | Incumbent    BestBd   Gap | It/Node Time

     0     0  502.50000    0    4  923.00000  502.50000  45.6%     -    0s
H    0     0                     655.0000000  502.50000  23.3%     -    0s
H    0     0                     544.0000000  502.50000  7.63%     -    0s
H    0     0                     533.0000000  502.50000  5.72%     -    0s
H    0     0                     511.0000000  502.50000  1.66%     -    0s
     0     0     cutoff    0       511.00000  510.00051  0.20%     -    0s

Cutting planes:
  Gomory: 1
  Cover: 5

Explored 0 nodes (31 simplex iterations) in 0.00 seconds
Thread count was 8 (of 8 available processors)

Optimal solution found (tolerance 1.00e-04)
Best objective 5.110000000000e+02, best bound 5.110000000000e+02, gap 0.0%
